2 198 19 118 123 9 172 40 31 46 152 145 60 102 50 113 130 54 133 168 158 4 0 6 180 197 116 111 184 199 62 78 47 93 37 85 142 33 15 137 74 146 84 139 67 26 110 44 91 166 127 76 13 42 79 196 88 149 163 148 147 36 100 182 112 89 136 119 159 169 128 53 86 189 57 23 94 32 144 103 129 16 35 177 20 122 73 49 58 51 69 151 114 165 29 28 11 143 131 5 65 7 22 10 43 18 34 174 101 150 121 178 24 141 106 170 135 66 68 167 125 59 48 193 1 181 3 109 192 107 108 126 98 92 81 80 12 61 56 138 132 87 161 115 82 153 75 8 83 39 90 21 162 186 99 52 179 134 72 27 38 160 45 30 185 195 14 183 175 171 140 41 64 105 120 77 188 155 194 17 71 117 55 97 187 96 173 191 176 190 104 63 157 124 25 156 164 70 95 154 

